<number of tasks>
89

<cycle time>
103

<task times>
1 28
2 17
3 7
4 10
5 12
6 16
7 13
8 8
9 13
10 24
11 16
12 24
13 12
14 20
15 22
16 22
17 22
18 47
19 6
20 12
21 6
22 22
23 7
24 14
25 68
26 15
27 8
28 74
29 32
30 11
31 18
32 15
33 42
34 27
35 38
36 38
37 26
38 35
39 31
40 8
41 14
42 8
43 8
44 8
45 17
46 7
47 19
48 12
49 24
50 26
51 22
52 14
53 27
54 60
55 4
56 2
57 1
58 9
59 5
60 6
61 7
62 12
63 2
64 11
65 14
66 6
67 21
68 14
69 1
70 6
71 21
72 11
73 14
74 28
75 12
76 11
77 30
78 22
79 14
80 31
81 18
82 16
83 7
84 38
85 8
86 31
87 29
88 12
89 18

<precedence relations>
1,2
2,3
3,4
4,5
4,6
4,7
4,8
4,9
5,10
6,11
7,12
8,18
9,18
10,14
11,12
12,13
13,14
14,15
14,16
15,17
16,54
17,18
18,19
18,20
19,22
20,21
20,28
21,54
22,23
23,24
24,25
25,26
25,27
25,29
26,37
27,33
28,29
29,31
30,54
31,32
32,33
33,34
34,35
35,36
35,37
36,38
37,38
38,39
39,40
39,41
39,42
39,43
40,44
41,53
42,53
43,45
44,52
45,46
46,47
47,48
47,49
49,50
50,51
51,52
52,53
53,68
53,69
53,70
53,71
54,55
55,56
56,57
57,58
57,59
57,60
57,61
57,62
57,63
57,64
57,65
57,66
58,67
59,67
60,67
61,67
62,67
63,67
64,67
65,67
66,67
67,73
68,72
69,72
70,72
71,73
72,78
72,80
73,74
74,75
74,76
75,77
76,81
77,78
78,79
79,81
80,81
81,82
81,84
81,85
82,83
83,86
84,86
85,86
86,87
87,88
87,89

<setup times forward>
1,30:2
2,30:2
3,30:2
4,5:3
4,7:3
4,9:3
4,30:2
5,6:3
5,8:3
5,11:3
5,30:5
6,5:3
6,7:3
6,9:3
6,10:3
6,30:2
7,6:3
7,8:3
7,11:3
7,30:5
8,5:3
8,7:3
8,9:3
8,10:3
8,12:3
8,13:3
8,14:2
8,15:2
8,16:2
8,17:2
8,18:1
8,30:2
9,6:3
9,8:3
9,11:3
9,14:5
9,15:5
9,16:5
9,17:5
9,18:2
9,30:5
10,6:3
10,8:3
10,11:3
10,14:5
10,30:5
11,5:3
11,7:3
11,9:3
11,10:3
11,12:3
11,30:2
12,8:3
12,30:5
13,8:3
13,14:5
13,30:5
14,8:2
14,9:5
15,8:2
15,9:5
16,8:2
16,9:5
16,18:3
16,19:3
16,20:3
16,21:3
16,22:3
16,23:3
16,24:3
16,25:3
16,27:3
16,29:2
16,31:2
16,32:2
16,33:1
16,34:4
16,35:4
16,36:4
16,40:1
16,41:1
16,42:1
16,44:1
16,45:2
16,46:2
16,47:2
16,48:3
16,49:2
16,50:2
16,51:3
16,52:3
16,53:3
16,54:1
16,68:4
16,69:4
16,70:4
16,71:4
16,72:4
16,80:4
17,8:2
17,9:5
17,18:3
18,16:3
18,30:3
19,16:3
19,28:3
19,30:3
19,54:4
19,55:5
19,56:5
19,57:5
19,58:2
19,59:2
19,60:2
19,62:2
19,63:5
19,64:2
19,65:2
19,66:2
20,16:3
20,26:3
20,28:3
20,30:3
21,16:3
21,26:3
21,28:3
21,29:1
21,30:3
21,31:1
21,32:1
21,33:4
21,34:1
21,35:1
21,36:1
21,37:3
21,38:3
21,39:3
21,40:2
21,41:2
21,42:2
21,43:3
21,44:2
21,45:5
21,46:5
21,47:5
21,49:5
21,50:5
21,54:4
21,68:1
21,69:1
21,70:1
21,71:1
21,72:1
21,80:1
22,16:3
22,28:3
22,30:3
22,54:4
22,55:5
22,56:5
22,57:5
22,58:2
22,59:2
22,60:2
22,62:2
22,63:5
22,64:2
22,65:2
22,66:2
23,16:3
23,28:3
23,30:3
23,54:4
23,55:5
23,56:5
23,57:5
23,58:2
23,59:2
23,60:2
23,62:2
23,63:5
23,64:2
23,65:2
23,66:2
24,16:3
24,28:3
24,30:3
24,54:4
24,55:5
24,56:5
24,57:5
24,58:2
24,59:2
24,60:2
24,62:2
24,63:5
24,64:2
24,65:2
24,66:2
25,16:3
25,26:3
25,28:3
25,29:1
25,30:3
25,54:4
25,55:5
25,56:5
25,57:5
25,58:2
25,59:2
25,60:2
25,62:2
25,63:5
25,64:2
25,65:2
25,66:2
26,20:3
26,21:3
26,27:3
26,29:2
26,31:2
26,32:2
26,33:1
26,34:4
26,35:4
26,36:4
26,54:1
26,55:2
26,56:2
26,57:2
26,58:1
26,59:1
26,60:1
26,61:3
26,62:1
26,63:2
26,64:1
26,65:1
26,66:1
26,67:3
27,16:3
27,26:3
27,28:3
27,29:1
27,30:3
27,31:1
27,32:1
27,33:4
27,54:4
27,55:5
27,56:5
27,57:5
27,58:2
27,59:2
27,60:2
27,62:2
27,63:5
27,64:2
27,65:2
27,66:2
28,19:3
28,21:3
28,22:3
28,23:3
28,24:3
28,25:3
28,27:3
28,29:2
28,54:1
28,55:2
28,56:2
28,57:2
28,58:1
28,59:1
28,60:1
28,61:3
28,62:1
28,63:2
28,64:1
28,65:1
28,66:1
28,67:3
29,16:2
29,21:1
29,26:2
29,27:1
29,30:2
29,54:3
29,55:4
29,56:4
29,57:4
29,58:1
29,59:1
29,60:1
29,61:1
29,62:1
29,63:4
29,64:1
29,65:1
29,66:1
29,67:1
30,1:2
30,2:2
30,3:2
30,4:2
30,5:5
30,6:2
30,7:5
30,8:2
30,9:5
30,10:5
30,11:2
30,12:5
30,13:5
30,18:3
30,19:3
30,20:3
30,21:3
30,22:3
30,23:3
30,24:3
30,25:3
30,27:3
30,29:2
30,31:2
30,32:2
30,33:1
30,34:4
30,35:4
30,36:4
30,40:1
30,41:1
30,42:1
30,44:1
30,45:2
30,46:2
30,47:2
30,48:3
30,49:2
30,50:2
30,51:3
30,52:3
30,53:3
30,54:1
30,68:4
30,69:4
30,70:4
30,71:4
30,72:4
30,80:4
31,16:2
31,21:1
31,26:2
31,27:1
31,30:2
31,54:3
31,55:4
31,56:4
31,57:4
31,58:1
31,59:1
31,60:1
31,61:1
31,62:1
31,63:4
31,64:1
31,65:1
31,66:1
31,67:1
32,16:2
32,21:1
32,26:2
32,27:1
32,30:2
32,33:3
32,54:3
32,55:4
32,56:4
32,57:4
32,58:1
32,59:1
32,60:1
32,61:1
32,62:1
32,63:4
32,64:1
32,65:1
32,66:1
32,67:1
33,16:1
33,21:4
33,26:1
33,30:1
33,34:5
33,55:1
33,56:1
33,57:1
33,58:2
33,59:2
33,60:2
33,61:4
33,62:2
33,63:1
33,64:2
33,65:2
33,66:2
33,67:4
34,16:4
34,21:1
34,26:4
34,30:4
34,54:5
34,55:6
34,56:6
34,57:6
34,58:3
34,59:3
34,60:3
34,61:1
34,62:3
34,63:6
34,64:3
34,65:3
34,66:3
34,67:1
35,16:4
35,21:1
35,26:4
35,30:4
35,37:4
35,54:5
35,55:6
35,56:6
35,57:6
35,58:3
35,59:3
35,60:3
35,61:1
35,62:3
35,63:6
35,64:3
35,65:3
35,66:3
35,67:1
36,16:4
36,21:1
36,26:4
36,30:4
36,37:4
36,38:4
36,54:5
36,55:6
36,56:6
36,57:6
36,58:3
36,59:3
36,60:3
36,61:1
36,62:3
36,63:6
36,64:3
36,65:3
36,66:3
36,67:1
37,21:3
37,36:4
37,54:1
37,55:2
37,56:2
37,57:2
37,58:1
37,59:1
37,60:1
37,61:3
37,62:1
37,63:2
37,64:1
37,65:1
37,66:1
37,67:3
38,21:3
38,54:1
38,55:2
38,56:2
38,57:2
38,58:1
38,59:1
38,60:1
38,61:3
38,62:1
38,63:2
38,64:1
38,65:1
38,66:1
38,67:3
39,21:3
39,40:1
39,41:1
39,42:1
39,54:1
39,55:2
39,56:2
39,57:2
39,58:1
39,59:1
39,60:1
39,61:3
39,62:1
39,63:2
39,64:1
39,65:1
39,66:1
39,67:3
40,16:1
40,21:2
40,30:1
40,43:1
40,45:3
40,46:3
40,47:3
40,48:2
40,49:3
40,50:3
40,51:2
40,54:2
40,55:3
40,56:3
40,57:3
40,61:2
40,63:3
40,67:2
41,16:1
41,21:2
41,30:1
41,43:1
41,45:3
41,46:3
41,47:3
41,48:2
41,49:3
41,50:3
41,51:2
41,52:2
41,53:2
41,54:2
41,55:3
41,56:3
41,57:3
41,61:2
41,63:3
41,67:2
42,16:1
42,21:2
42,30:1
42,43:1
42,45:3
42,46:3
42,47:3
42,48:2
42,49:3
42,50:3
42,51:2
42,52:2
42,53:2
42,54:2
42,55:3
42,56:3
42,57:3
42,61:2
42,63:3
42,67:2
43,21:3
43,40:1
43,41:1
43,42:1
43,44:1
43,45:2
43,54:1
43,55:2
43,56:2
43,57:2
43,58:1
43,59:1
43,60:1
43,61:3
43,62:1
43,63:2
43,64:1
43,65:1
43,66:1
43,67:3
44,16:1
44,21:2
44,30:1
44,43:1
44,45:3
44,46:3
44,47:3
44,48:2
44,49:3
44,50:3
44,51:2
44,52:2
44,54:2
44,55:3
44,56:3
44,57:3
44,61:2
44,63:3
44,67:2
45,16:2
45,21:5
45,30:2
45,40:3
45,41:3
45,42:3
45,44:3
45,54:1
45,58:3
45,59:3
45,60:3
45,61:5
45,62:3
45,64:3
45,65:3
45,66:3
45,67:5
46,16:2
46,21:5
46,30:2
46,40:3
46,41:3
46,42:3
46,44:3
46,54:1
46,58:3
46,59:3
46,60:3
46,61:5
46,62:3
46,64:3
46,65:3
46,66:3
46,67:5
47,16:2
47,21:5
47,30:2
47,40:3
47,41:3
47,42:3
47,44:3
47,48:5
47,54:1
47,58:3
47,59:3
47,60:3
47,61:5
47,62:3
47,64:3
47,65:3
47,66:3
47,67:5
48,16:3
48,30:3
48,40:2
48,41:2
48,42:2
48,44:2
48,49:5
48,50:5
48,54:4
48,55:5
48,56:5
48,57:5
48,58:2
48,59:2
48,60:2
48,62:2
48,63:5
48,64:2
48,65:2
48,66:2
48,68:1
48,69:1
48,70:1
48,71:1
48,72:1
48,73:1
48,74:6
48,75:6
48,76:6
48,77:6
48,78:6
48,79:5
48,80:1
48,81:5
48,82:5
48,83:2
48,84:5
48,85:5
48,86:2
48,87:2
48,88:2
48,89:2
49,16:2
49,21:5
49,30:2
49,40:3
49,41:3
49,42:3
49,44:3
49,48:5
49,54:1
49,58:3
49,59:3
49,60:3
49,61:5
49,62:3
49,64:3
49,65:3
49,66:3
49,67:5
50,16:2
50,21:5
50,30:2
50,40:3
50,41:3
50,42:3
50,44:3
50,48:5
50,51:5
50,54:1
50,58:3
50,59:3
50,60:3
50,61:5
50,62:3
50,64:3
50,65:3
50,66:3
50,67:5
51,16:3
51,30:3
51,40:2
51,41:2
51,42:2
51,44:2
51,54:4
51,55:5
51,56:5
51,57:5
51,58:2
51,59:2
51,60:2
51,62:2
51,63:5
51,64:2
51,65:2
51,66:2
52,16:3
52,30:3
52,41:2
52,42:2
52,54:4
52,55:5
52,56:5
52,57:5
52,58:2
52,59:2
52,60:2
52,62:2
52,63:5
52,64:2
52,65:2
52,66:2
53,16:3
53,30:3
53,54:4
53,55:5
53,56:5
53,57:5
53,58:2
53,59:2
53,60:2
53,62:2
53,63:5
53,64:2
53,65:2
53,66:2
53,68:1
53,69:1
53,70:1
53,71:1
54,19:4
54,22:4
54,23:4
54,24:4
54,25:4
54,26:1
54,27:4
54,28:1
54,29:3
54,31:3
54,32:3
54,34:5
54,35:5
54,36:5
54,37:1
54,38:1
54,39:1
54,40:2
54,41:2
54,42:2
54,43:1
54,44:2
54,45:1
54,46:1
54,47:1
54,48:4
54,49:1
54,50:1
54,51:4
54,52:4
54,53:4
54,55:1
54,68:5
54,69:5
54,70:5
54,71:5
54,72:5
54,80:5
55,19:5
55,22:5
55,23:5
55,24:5
55,25:5
55,26:2
55,27:5
55,28:2
55,29:4
55,31:4
55,32:4
55,33:1
55,34:6
55,35:6
55,36:6
55,37:2
55,38:2
55,39:2
55,40:3
55,41:3
55,42:3
55,43:2
55,44:3
55,48:5
55,51:5
55,52:5
55,53:5
55,68:6
55,69:6
55,70:6
55,71:6
55,72:6
55,80:6
56,19:5
56,22:5
56,23:5
56,24:5
56,25:5
56,26:2
56,27:5
56,28:2
56,29:4
56,31:4
56,32:4
56,33:1
56,34:6
56,35:6
56,36:6
56,37:2
56,38:2
56,39:2
56,40:3
56,41:3
56,42:3
56,43:2
56,44:3
56,48:5
56,51:5
56,52:5
56,53:5
56,68:6
56,69:6
56,70:6
56,71:6
56,72:6
56,80:6
57,19:5
57,22:5
57,23:5
57,24:5
57,25:5
57,26:2
57,27:5
57,28:2
57,29:4
57,31:4
57,32:4
57,33:1
57,34:6
57,35:6
57,36:6
57,37:2
57,38:2
57,39:2
57,40:3
57,41:3
57,42:3
57,43:2
57,44:3
57,48:5
57,51:5
57,52:5
57,53:5
57,58:3
57,59:3
57,60:3
57,61:5
57,62:3
57,64:3
57,65:3
57,66:3
57,68:6
57,69:6
57,70:6
57,71:6
57,72:6
57,80:6
58,19:2
58,22:2
58,23:2
58,24:2
58,25:2
58,26:1
58,27:2
58,28:1
58,29:1
58,31:1
58,32:1
58,33:2
58,34:3
58,35:3
58,36:3
58,37:1
58,38:1
58,39:1
58,43:1
58,45:3
58,46:3
58,47:3
58,48:2
58,49:3
58,50:3
58,51:2
58,52:2
58,53:2
58,61:2
58,63:3
58,67:2
58,68:3
58,69:3
58,70:3
58,71:3
58,72:3
58,80:3
59,19:2
59,22:2
59,23:2
59,24:2
59,25:2
59,26:1
59,27:2
59,28:1
59,29:1
59,31:1
59,32:1
59,33:2
59,34:3
59,35:3
59,36:3
59,37:1
59,38:1
59,39:1
59,43:1
59,45:3
59,46:3
59,47:3
59,48:2
59,49:3
59,50:3
59,51:2
59,52:2
59,53:2
59,61:2
59,63:3
59,67:2
59,68:3
59,69:3
59,70:3
59,71:3
59,72:3
59,80:3
60,19:2
60,22:2
60,23:2
60,24:2
60,25:2
60,26:1
60,27:2
60,28:1
60,29:1
60,31:1
60,32:1
60,33:2
60,34:3
60,35:3
60,36:3
60,37:1
60,38:1
60,39:1
60,43:1
60,45:3
60,46:3
60,47:3
60,48:2
60,49:3
60,50:3
60,51:2
60,52:2
60,53:2
60,61:2
60,63:3
60,67:2
60,68:3
60,69:3
60,70:3
60,71:3
60,72:3
60,80:3
61,26:3
61,28:3
61,29:1
61,31:1
61,32:1
61,33:4
61,34:1
61,35:1
61,36:1
61,37:3
61,38:3
61,39:3
61,40:2
61,41:2
61,42:2
61,43:3
61,44:2
61,45:5
61,46:5
61,47:5
61,49:5
61,50:5
61,58:2
61,59:2
61,60:2
61,62:2
61,63:5
61,64:2
61,65:2
61,66:2
61,68:1
61,69:1
61,70:1
61,71:1
61,72:1
61,80:1
62,19:2
62,22:2
62,23:2
62,24:2
62,25:2
62,26:1
62,27:2
62,28:1
62,29:1
62,31:1
62,32:1
62,33:2
62,34:3
62,35:3
62,36:3
62,37:1
62,38:1
62,39:1
62,43:1
62,45:3
62,46:3
62,47:3
62,48:2
62,49:3
62,50:3
62,51:2
62,52:2
62,53:2
62,61:2
62,63:3
62,67:2
62,68:3
62,69:3
62,70:3
62,71:3
62,72:3
62,80:3
63,19:5
63,22:5
63,23:5
63,24:5
63,25:5
63,26:2
63,27:5
63,28:2
63,29:4
63,31:4
63,32:4
63,33:1
63,34:6
63,35:6
63,36:6
63,37:2
63,38:2
63,39:2
63,40:3
63,41:3
63,42:3
63,43:2
63,44:3
63,48:5
63,51:5
63,52:5
63,53:5
63,58:3
63,59:3
63,60:3
63,61:5
63,62:3
63,64:3
63,65:3
63,66:3
63,67:5
63,68:6
63,69:6
63,70:6
63,71:6
63,72:6
63,80:6
64,19:2
64,22:2
64,23:2
64,24:2
64,25:2
64,26:1
64,27:2
64,28:1
64,29:1
64,31:1
64,32:1
64,33:2
64,34:3
64,35:3
64,36:3
64,37:1
64,38:1
64,39:1
64,43:1
64,45:3
64,46:3
64,47:3
64,48:2
64,49:3
64,50:3
64,51:2
64,52:2
64,53:2
64,61:2
64,63:3
64,67:2
64,68:3
64,69:3
64,70:3
64,71:3
64,72:3
64,80:3
65,19:2
65,22:2
65,23:2
65,24:2
65,25:2
65,26:1
65,27:2
65,28:1
65,29:1
65,31:1
65,32:1
65,33:2
65,34:3
65,35:3
65,36:3
65,37:1
65,38:1
65,39:1
65,43:1
65,45:3
65,46:3
65,47:3
65,48:2
65,49:3
65,50:3
65,51:2
65,52:2
65,53:2
65,61:2
65,63:3
65,67:2
65,68:3
65,69:3
65,70:3
65,71:3
65,72:3
65,80:3
66,19:2
66,22:2
66,23:2
66,24:2
66,25:2
66,26:1
66,27:2
66,28:1
66,29:1
66,31:1
66,32:1
66,33:2
66,34:3
66,35:3
66,36:3
66,37:1
66,38:1
66,39:1
66,43:1
66,45:3
66,46:3
66,47:3
66,48:2
66,49:3
66,50:3
66,51:2
66,52:2
66,53:2
66,61:2
66,63:3
66,67:2
66,68:3
66,69:3
66,70:3
66,71:3
66,72:3
66,80:3
67,26:3
67,28:3
67,29:1
67,31:1
67,32:1
67,33:4
67,34:1
67,35:1
67,36:1
67,37:3
67,38:3
67,39:3
67,40:2
67,41:2
67,42:2
67,43:3
67,44:2
67,45:5
67,46:5
67,47:5
67,49:5
67,50:5
67,68:1
67,69:1
67,70:1
67,71:1
67,72:1
67,73:1
67,80:1
68,16:4
68,21:1
68,30:4
68,48:1
68,54:5
68,55:6
68,56:6
68,57:6
68,58:3
68,59:3
68,60:3
68,61:1
68,62:3
68,63:6
68,64:3
68,65:3
68,66:3
68,67:1
68,74:7
68,75:7
68,76:7
68,77:7
69,16:4
69,21:1
69,30:4
69,48:1
69,54:5
69,55:6
69,56:6
69,57:6
69,58:3
69,59:3
69,60:3
69,61:1
69,62:3
69,63:6
69,64:3
69,65:3
69,66:3
69,67:1
69,74:7
69,75:7
69,76:7
69,77:7
70,16:4
70,21:1
70,30:4
70,48:1
70,54:5
70,55:6
70,56:6
70,57:6
70,58:3
70,59:3
70,60:3
70,61:1
70,62:3
70,63:6
70,64:3
70,65:3
70,66:3
70,67:1
70,74:7
70,75:7
70,76:7
70,77:7
71,16:4
71,21:1
71,30:4
71,48:1
71,54:5
71,55:6
71,56:6
71,57:6
71,58:3
71,59:3
71,60:3
71,61:1
71,62:3
71,63:6
71,64:3
71,65:3
71,66:3
71,67:1
72,16:4
72,21:1
72,30:4
72,48:1
72,54:5
72,55:6
72,56:6
72,57:6
72,58:3
72,59:3
72,60:3
72,61:1
72,62:3
72,63:6
72,64:3
72,65:3
72,66:3
72,67:1
72,74:7
72,75:7
72,76:7
72,77:7
72,78:7
73,48:1
73,74:7
74,48:6
74,68:7
74,69:7
74,70:7
74,72:7
74,80:7
75,48:6
75,68:7
75,69:7
75,70:7
75,72:7
75,80:7
76,48:6
76,68:7
76,69:7
76,70:7
76,72:7
76,79:1
76,80:7
76,81:1
77,48:6
77,68:7
77,69:7
77,70:7
77,72:7
77,80:7
78,48:6
78,79:1
78,80:7
79,48:5
79,76:1
79,80:6
80,16:4
80,21:1
80,30:4
80,48:1
80,54:5
80,55:6
80,56:6
80,57:6
80,58:3
80,59:3
80,60:3
80,61:1
80,62:3
80,63:6
80,64:3
80,65:3
80,66:3
80,67:1
80,74:7
80,75:7
80,76:7
80,77:7
80,78:7
80,79:6
80,81:6
81,48:5
82,48:5
82,83:7
83,48:2
83,84:7
83,85:7
84,48:5
84,83:7
84,86:7
85,48:5
85,83:7
85,86:7
86,48:2
87,48:2
88,48:2
89,48:2

<setup times backward>
1,30:2
2,30:2
3,30:2
4,30:2
5,1:3
5,2:3
5,3:3
5,4:3
5,6:3
5,8:3
5,11:3
5,30:5
6,30:2
7,1:3
7,2:3
7,3:3
7,4:3
7,6:3
7,8:3
7,11:3
7,30:5
8,14:2
8,15:2
8,16:2
8,17:2
8,30:2
9,1:3
9,2:3
9,3:3
9,4:3
9,6:3
9,8:3
9,11:3
9,14:5
9,15:5
9,16:5
9,17:5
9,30:5
10,1:3
10,2:3
10,3:3
10,4:3
10,6:3
10,8:3
10,11:3
10,30:5
11,30:2
12,1:3
12,2:3
12,3:3
12,4:3
12,6:3
12,8:3
12,11:3
12,30:5
13,1:3
13,2:3
13,3:3
13,4:3
13,6:3
13,8:3
13,11:3
13,30:5
16,33:1
16,45:2
16,46:2
16,47:2
16,49:2
16,50:2
18,1:1
18,2:1
18,3:1
18,4:1
18,6:1
18,8:1
18,11:1
18,14:3
18,15:3
18,16:3
18,17:3
18,30:3
19,1:1
19,2:1
19,3:1
19,4:1
19,6:1
19,8:1
19,11:1
19,14:3
19,15:3
19,16:3
19,17:3
19,28:3
19,30:3
19,54:4
19,55:5
19,56:5
19,57:5
19,58:2
19,59:2
19,60:2
19,62:2
19,63:5
19,64:2
19,65:2
19,66:2
20,1:1
20,2:1
20,3:1
20,4:1
20,6:1
20,8:1
20,11:1
20,14:3
20,15:3
20,16:3
20,17:3
20,26:3
20,30:3
21,1:1
21,2:1
21,3:1
21,4:1
21,6:1
21,8:1
21,11:1
21,14:3
21,15:3
21,16:3
21,17:3
21,26:3
21,28:3
21,29:1
21,30:3
21,31:1
21,32:1
21,33:4
21,37:3
21,38:3
21,39:3
21,40:2
21,41:2
21,42:2
21,43:3
21,44:2
21,45:5
21,46:5
21,47:5
21,49:5
21,50:5
22,1:1
22,2:1
22,3:1
22,4:1
22,6:1
22,8:1
22,11:1
22,14:3
22,15:3
22,16:3
22,17:3
22,28:3
22,30:3
22,54:4
22,55:5
22,56:5
22,57:5
22,58:2
22,59:2
22,60:2
22,62:2
22,63:5
22,64:2
22,65:2
22,66:2
23,1:1
23,2:1
23,3:1
23,4:1
23,6:1
23,8:1
23,11:1
23,14:3
23,15:3
23,16:3
23,17:3
23,28:3
23,30:3
23,54:4
23,55:5
23,56:5
23,57:5
23,58:2
23,59:2
23,60:2
23,62:2
23,63:5
23,64:2
23,65:2
23,66:2
24,1:1
24,2:1
24,3:1
24,4:1
24,6:1
24,8:1
24,11:1
24,14:3
24,15:3
24,16:3
24,17:3
24,28:3
24,30:3
24,54:4
24,55:5
24,56:5
24,57:5
24,58:2
24,59:2
24,60:2
24,62:2
24,63:5
24,64:2
24,65:2
24,66:2
25,1:1
25,2:1
25,3:1
25,4:1
25,6:1
25,8:1
25,11:1
25,14:3
25,15:3
25,16:3
25,17:3
25,28:3
25,30:3
25,54:4
25,55:5
25,56:5
25,57:5
25,58:2
25,59:2
25,60:2
25,62:2
25,63:5
25,64:2
25,65:2
25,66:2
26,33:1
26,54:1
26,55:2
26,56:2
26,57:2
26,63:2
27,1:1
27,2:1
27,3:1
27,4:1
27,6:1
27,8:1
27,11:1
27,14:3
27,15:3
27,16:3
27,17:3
27,26:3
27,28:3
27,29:1
27,30:3
27,31:1
27,32:1
27,54:4
27,55:5
27,56:5
27,57:5
27,58:2
27,59:2
27,60:2
27,62:2
27,63:5
27,64:2
27,65:2
27,66:2
28,54:1
28,55:2
28,56:2
28,57:2
28,63:2
29,14:2
29,15:2
29,16:2
29,17:2
29,26:2
29,28:2
29,30:2
29,54:3
29,55:4
29,56:4
29,57:4
29,58:1
29,59:1
29,60:1
29,62:1
29,63:4
29,64:1
29,65:1
29,66:1
30,33:1
30,45:2
30,46:2
30,47:2
30,49:2
30,50:2
31,14:2
31,15:2
31,16:2
31,17:2
31,26:2
31,28:2
31,30:2
31,54:3
31,55:4
31,56:4
31,57:4
31,58:1
31,59:1
31,60:1
31,62:1
31,63:4
31,64:1
31,65:1
31,66:1
32,14:2
32,15:2
32,16:2
32,17:2
32,26:2
32,28:2
32,30:2
32,54:3
32,55:4
32,56:4
32,57:4
32,58:1
32,59:1
32,60:1
32,62:1
32,63:4
32,64:1
32,65:1
32,66:1
33,55:1
33,56:1
33,57:1
33,63:1
34,1:2
34,2:2
34,3:2
34,4:2
34,6:2
34,8:2
34,11:2
34,14:4
34,15:4
34,16:4
34,17:4
34,18:1
34,19:1
34,20:1
34,21:1
34,22:1
34,23:1
34,24:1
34,25:1
34,26:4
34,27:1
34,28:4
34,29:2
34,30:4
34,31:2
34,32:2
34,33:5
34,54:5
34,55:6
34,56:6
34,57:6
34,58:3
34,59:3
34,60:3
34,61:1
34,62:3
34,63:6
34,64:3
34,65:3
34,66:3
34,67:1
35,1:2
35,2:2
35,3:2
35,4:2
35,6:2
35,8:2
35,11:2
35,14:4
35,15:4
35,16:4
35,17:4
35,18:1
35,19:1
35,20:1
35,21:1
35,22:1
35,23:1
35,24:1
35,25:1
35,26:4
35,27:1
35,28:4
35,29:2
35,30:4
35,31:2
35,32:2
35,33:5
35,54:5
35,55:6
35,56:6
35,57:6
35,58:3
35,59:3
35,60:3
35,61:1
35,62:3
35,63:6
35,64:3
35,65:3
35,66:3
35,67:1
36,1:2
36,2:2
36,3:2
36,4:2
36,6:2
36,8:2
36,11:2
36,14:4
36,15:4
36,16:4
36,17:4
36,18:1
36,19:1
36,20:1
36,21:1
36,22:1
36,23:1
36,24:1
36,25:1
36,26:4
36,27:1
36,28:4
36,29:2
36,30:4
36,31:2
36,32:2
36,33:5
36,37:4
36,54:5
36,55:6
36,56:6
36,57:6
36,58:3
36,59:3
36,60:3
36,61:1
36,62:3
36,63:6
36,64:3
36,65:3
36,66:3
36,67:1
37,33:1
37,54:1
37,55:2
37,56:2
37,57:2
37,63:2
38,33:1
38,54:1
38,55:2
38,56:2
38,57:2
38,63:2
39,33:1
39,54:1
39,55:2
39,56:2
39,57:2
39,63:2
40,14:1
40,15:1
40,16:1
40,17:1
40,26:1
40,28:1
40,30:1
40,33:2
40,37:1
40,38:1
40,39:1
40,43:1
40,45:3
40,46:3
40,47:3
40,49:3
40,50:3
40,54:2
40,55:3
40,56:3
40,57:3
40,63:3
41,14:1
41,15:1
41,16:1
41,17:1
41,26:1
41,28:1
41,30:1
41,33:2
41,37:1
41,38:1
41,39:1
41,43:1
41,45:3
41,46:3
41,47:3
41,49:3
41,50:3
41,54:2
41,55:3
41,56:3
41,57:3
41,63:3
42,14:1
42,15:1
42,16:1
42,17:1
42,26:1
42,28:1
42,30:1
42,33:2
42,37:1
42,38:1
42,39:1
42,43:1
42,45:3
42,46:3
42,47:3
42,49:3
42,50:3
42,54:2
42,55:3
42,56:3
42,57:3
42,63:3
43,33:1
43,54:1
43,55:2
43,56:2
43,57:2
43,63:2
44,14:1
44,15:1
44,16:1
44,17:1
44,26:1
44,28:1
44,30:1
44,33:2
44,37:1
44,38:1
44,39:1
44,43:1
44,45:3
44,46:3
44,47:3
44,49:3
44,50:3
44,54:2
44,55:3
44,56:3
44,57:3
44,63:3
48,1:1
48,2:1
48,3:1
48,4:1
48,6:1
48,8:1
48,11:1
48,14:3
48,15:3
48,16:3
48,17:3
48,26:3
48,28:3
48,29:1
48,30:3
48,31:1
48,32:1
48,33:4
48,37:3
48,38:3
48,39:3
48,40:2
48,41:2
48,42:2
48,43:3
48,44:2
48,45:5
48,46:5
48,47:5
48,49:5
48,50:5
48,54:4
48,55:5
48,56:5
48,57:5
48,58:2
48,59:2
48,60:2
48,62:2
48,63:5
48,64:2
48,65:2
48,66:2
48,74:6
48,75:6
48,76:6
48,77:6
48,78:6
48,79:5
48,81:5
48,82:5
48,84:5
48,85:5
51,1:1
51,2:1
51,3:1
51,4:1
51,6:1
51,8:1
51,11:1
51,14:3
51,15:3
51,16:3
51,17:3
51,26:3
51,28:3
51,29:1
51,30:3
51,31:1
51,32:1
51,33:4
51,37:3
51,38:3
51,39:3
51,40:2
51,41:2
51,42:2
51,43:3
51,44:2
51,45:5
51,46:5
51,47:5
51,49:5
51,50:5
51,54:4
51,55:5
51,56:5
51,57:5
51,58:2
51,59:2
51,60:2
51,62:2
51,63:5
51,64:2
51,65:2
51,66:2
52,1:1
52,2:1
52,3:1
52,4:1
52,6:1
52,8:1
52,11:1
52,14:3
52,15:3
52,16:3
52,17:3
52,26:3
52,28:3
52,29:1
52,30:3
52,31:1
52,32:1
52,33:4
52,37:3
52,38:3
52,39:3
52,40:2
52,41:2
52,42:2
52,43:3
52,44:2
52,45:5
52,46:5
52,47:5
52,49:5
52,50:5
52,54:4
52,55:5
52,56:5
52,57:5
52,58:2
52,59:2
52,60:2
52,62:2
52,63:5
52,64:2
52,65:2
52,66:2
53,1:1
53,2:1
53,3:1
53,4:1
53,6:1
53,8:1
53,11:1
53,14:3
53,15:3
53,16:3
53,17:3
53,26:3
53,28:3
53,29:1
53,30:3
53,31:1
53,32:1
53,33:4
53,37:3
53,38:3
53,39:3
53,40:2
53,41:2
53,42:2
53,43:3
53,44:2
53,45:5
53,46:5
53,47:5
53,49:5
53,50:5
53,54:4
53,55:5
53,56:5
53,57:5
53,58:2
53,59:2
53,60:2
53,62:2
53,63:5
53,64:2
53,65:2
53,66:2
54,45:1
54,46:1
54,47:1
54,49:1
54,50:1
58,14:1
58,15:1
58,16:1
58,17:1
58,26:1
58,28:1
58,30:1
58,33:2
58,37:1
58,38:1
58,39:1
58,43:1
58,45:3
58,46:3
58,47:3
58,49:3
58,50:3
58,54:2
58,55:3
58,56:3
58,57:3
58,63:3
59,14:1
59,15:1
59,16:1
59,17:1
59,26:1
59,28:1
59,30:1
59,33:2
59,37:1
59,38:1
59,39:1
59,43:1
59,45:3
59,46:3
59,47:3
59,49:3
59,50:3
59,54:2
59,55:3
59,56:3
59,57:3
59,63:3
60,14:1
60,15:1
60,16:1
60,17:1
60,26:1
60,28:1
60,30:1
60,33:2
60,37:1
60,38:1
60,39:1
60,43:1
60,45:3
60,46:3
60,47:3
60,49:3
60,50:3
60,54:2
60,55:3
60,56:3
60,57:3
60,63:3
61,1:1
61,2:1
61,3:1
61,4:1
61,6:1
61,8:1
61,11:1
61,14:3
61,15:3
61,16:3
61,17:3
61,26:3
61,28:3
61,29:1
61,30:3
61,31:1
61,32:1
61,33:4
61,37:3
61,38:3
61,39:3
61,40:2
61,41:2
61,42:2
61,43:3
61,44:2
61,45:5
61,46:5
61,47:5
61,49:5
61,50:5
61,54:4
61,55:5
61,56:5
61,57:5
61,58:2
61,59:2
61,60:2
61,62:2
61,63:5
61,64:2
61,65:2
61,66:2
62,14:1
62,15:1
62,16:1
62,17:1
62,26:1
62,28:1
62,30:1
62,33:2
62,37:1
62,38:1
62,39:1
62,43:1
62,45:3
62,46:3
62,47:3
62,49:3
62,50:3
62,54:2
62,55:3
62,56:3
62,57:3
62,63:3
64,14:1
64,15:1
64,16:1
64,17:1
64,26:1
64,28:1
64,30:1
64,33:2
64,37:1
64,38:1
64,39:1
64,43:1
64,45:3
64,46:3
64,47:3
64,49:3
64,50:3
64,54:2
64,55:3
64,56:3
64,57:3
64,63:3
65,14:1
65,15:1
65,16:1
65,17:1
65,26:1
65,28:1
65,30:1
65,33:2
65,37:1
65,38:1
65,39:1
65,43:1
65,45:3
65,46:3
65,47:3
65,49:3
65,50:3
65,54:2
65,55:3
65,56:3
65,57:3
65,63:3
66,14:1
66,15:1
66,16:1
66,17:1
66,26:1
66,28:1
66,30:1
66,33:2
66,37:1
66,38:1
66,39:1
66,43:1
66,45:3
66,46:3
66,47:3
66,49:3
66,50:3
66,54:2
66,55:3
66,56:3
66,57:3
66,63:3
67,1:1
67,2:1
67,3:1
67,4:1
67,6:1
67,8:1
67,11:1
67,14:3
67,15:3
67,16:3
67,17:3
67,26:3
67,28:3
67,29:1
67,30:3
67,31:1
67,32:1
67,33:4
67,37:3
67,38:3
67,39:3
67,40:2
67,41:2
67,42:2
67,43:3
67,44:2
67,45:5
67,46:5
67,47:5
67,49:5
67,50:5
67,54:4
67,55:5
67,56:5
67,57:5
67,58:2
67,59:2
67,60:2
67,62:2
67,63:5
67,64:2
67,65:2
67,66:2
68,1:2
68,2:2
68,3:2
68,4:2
68,6:2
68,8:2
68,11:2
68,14:4
68,15:4
68,16:4
68,17:4
68,18:1
68,19:1
68,20:1
68,21:1
68,22:1
68,23:1
68,24:1
68,25:1
68,26:4
68,27:1
68,28:4
68,29:2
68,30:4
68,31:2
68,32:2
68,33:5
68,37:4
68,38:4
68,39:4
68,40:3
68,41:3
68,42:3
68,43:4
68,44:3
68,45:6
68,46:6
68,47:6
68,48:1
68,49:6
68,50:6
68,51:1
68,52:1
68,53:1
68,54:5
68,55:6
68,56:6
68,57:6
68,58:3
68,59:3
68,60:3
68,61:1
68,62:3
68,63:6
68,64:3
68,65:3
68,66:3
68,67:1
68,74:7
68,75:7
68,76:7
68,77:7
69,1:2
69,2:2
69,3:2
69,4:2
69,6:2
69,8:2
69,11:2
69,14:4
69,15:4
69,16:4
69,17:4
69,18:1
69,19:1
69,20:1
69,21:1
69,22:1
69,23:1
69,24:1
69,25:1
69,26:4
69,27:1
69,28:4
69,29:2
69,30:4
69,31:2
69,32:2
69,33:5
69,37:4
69,38:4
69,39:4
69,40:3
69,41:3
69,42:3
69,43:4
69,44:3
69,45:6
69,46:6
69,47:6
69,48:1
69,49:6
69,50:6
69,51:1
69,52:1
69,53:1
69,54:5
69,55:6
69,56:6
69,57:6
69,58:3
69,59:3
69,60:3
69,61:1
69,62:3
69,63:6
69,64:3
69,65:3
69,66:3
69,67:1
69,74:7
69,75:7
69,76:7
69,77:7
70,1:2
70,2:2
70,3:2
70,4:2
70,6:2
70,8:2
70,11:2
70,14:4
70,15:4
70,16:4
70,17:4
70,18:1
70,19:1
70,20:1
70,21:1
70,22:1
70,23:1
70,24:1
70,25:1
70,26:4
70,27:1
70,28:4
70,29:2
70,30:4
70,31:2
70,32:2
70,33:5
70,37:4
70,38:4
70,39:4
70,40:3
70,41:3
70,42:3
70,43:4
70,44:3
70,45:6
70,46:6
70,47:6
70,48:1
70,49:6
70,50:6
70,51:1
70,52:1
70,53:1
70,54:5
70,55:6
70,56:6
70,57:6
70,58:3
70,59:3
70,60:3
70,61:1
70,62:3
70,63:6
70,64:3
70,65:3
70,66:3
70,67:1
70,74:7
70,75:7
70,76:7
70,77:7
71,1:2
71,2:2
71,3:2
71,4:2
71,6:2
71,8:2
71,11:2
71,14:4
71,15:4
71,16:4
71,17:4
71,18:1
71,19:1
71,20:1
71,21:1
71,22:1
71,23:1
71,24:1
71,25:1
71,26:4
71,27:1
71,28:4
71,29:2
71,30:4
71,31:2
71,32:2
71,33:5
71,37:4
71,38:4
71,39:4
71,40:3
71,41:3
71,42:3
71,43:4
71,44:3
71,45:6
71,46:6
71,47:6
71,48:1
71,49:6
71,50:6
71,51:1
71,52:1
71,53:1
71,54:5
71,55:6
71,56:6
71,57:6
71,58:3
71,59:3
71,60:3
71,61:1
71,62:3
71,63:6
71,64:3
71,65:3
71,66:3
71,67:1
72,1:2
72,2:2
72,3:2
72,4:2
72,6:2
72,8:2
72,11:2
72,14:4
72,15:4
72,16:4
72,17:4
72,18:1
72,19:1
72,20:1
72,21:1
72,22:1
72,23:1
72,24:1
72,25:1
72,26:4
72,27:1
72,28:4
72,29:2
72,30:4
72,31:2
72,32:2
72,33:5
72,37:4
72,38:4
72,39:4
72,40:3
72,41:3
72,42:3
72,43:4
72,44:3
72,45:6
72,46:6
72,47:6
72,48:1
72,49:6
72,50:6
72,51:1
72,52:1
72,53:1
72,54:5
72,55:6
72,56:6
72,57:6
72,58:3
72,59:3
72,60:3
72,61:1
72,62:3
72,63:6
72,64:3
72,65:3
72,66:3
72,67:1
72,74:7
72,75:7
72,76:7
72,77:7
73,1:2
73,2:2
73,3:2
73,4:2
73,6:2
73,8:2
73,11:2
73,14:4
73,15:4
73,16:4
73,17:4
73,18:1
73,19:1
73,20:1
73,21:1
73,22:1
73,23:1
73,24:1
73,25:1
73,26:4
73,27:1
73,28:4
73,29:2
73,30:4
73,31:2
73,32:2
73,33:5
73,37:4
73,38:4
73,39:4
73,40:3
73,41:3
73,42:3
73,43:4
73,44:3
73,45:6
73,46:6
73,47:6
73,48:1
73,49:6
73,50:6
73,51:1
73,52:1
73,53:1
73,54:5
73,55:6
73,56:6
73,57:6
73,58:3
73,59:3
73,60:3
73,61:1
73,62:3
73,63:6
73,64:3
73,65:3
73,66:3
73,67:1
79,74:1
79,75:1
79,76:1
79,77:1
79,78:1
80,1:2
80,2:2
80,3:2
80,4:2
80,6:2
80,8:2
80,11:2
80,14:4
80,15:4
80,16:4
80,17:4
80,18:1
80,19:1
80,20:1
80,21:1
80,22:1
80,23:1
80,24:1
80,25:1
80,26:4
80,27:1
80,28:4
80,29:2
80,30:4
80,31:2
80,32:2
80,33:5
80,37:4
80,38:4
80,39:4
80,40:3
80,41:3
80,42:3
80,43:4
80,44:3
80,45:6
80,46:6
80,47:6
80,48:1
80,49:6
80,50:6
80,51:1
80,52:1
80,53:1
80,54:5
80,55:6
80,56:6
80,57:6
80,58:3
80,59:3
80,60:3
80,61:1
80,62:3
80,63:6
80,64:3
80,65:3
80,66:3
80,67:1
80,74:7
80,75:7
80,76:7
80,77:7
80,78:7
80,79:6
81,74:1
81,75:1
81,76:1
81,77:1
81,78:1
82,74:1
82,75:1
82,76:1
82,77:1
82,78:1
83,1:3
83,2:3
83,3:3
83,4:3
83,6:3
83,8:3
83,11:3
83,14:5
83,15:5
83,16:5
83,17:5
83,18:2
83,19:2
83,20:2
83,21:2
83,22:2
83,23:2
83,24:2
83,25:2
83,26:5
83,27:2
83,28:5
83,29:3
83,30:5
83,31:3
83,32:3
83,33:6
83,34:1
83,35:1
83,36:1
83,37:5
83,38:5
83,39:5
83,40:4
83,41:4
83,42:4
83,43:5
83,44:4
83,45:7
83,46:7
83,47:7
83,48:2
83,49:7
83,50:7
83,51:2
83,52:2
83,53:2
83,54:6
83,55:7
83,56:7
83,57:7
83,58:4
83,59:4
83,60:4
83,61:2
83,62:4
83,63:7
83,64:4
83,65:4
83,66:4
83,67:2
83,68:1
83,69:1
83,70:1
83,71:1
83,72:1
83,73:1
83,74:8
83,75:8
83,76:8
83,77:8
83,78:8
83,79:7
83,80:1
83,81:7
83,82:7
83,84:7
83,85:7
84,74:1
84,75:1
84,76:1
84,77:1
84,78:1
85,74:1
85,75:1
85,76:1
85,77:1
85,78:1
86,1:3
86,2:3
86,3:3
86,4:3
86,6:3
86,8:3
86,11:3
86,14:5
86,15:5
86,16:5
86,17:5
86,18:2
86,19:2
86,20:2
86,21:2
86,22:2
86,23:2
86,24:2
86,25:2
86,26:5
86,27:2
86,28:5
86,29:3
86,30:5
86,31:3
86,32:3
86,33:6
86,34:1
86,35:1
86,36:1
86,37:5
86,38:5
86,39:5
86,40:4
86,41:4
86,42:4
86,43:5
86,44:4
86,45:7
86,46:7
86,47:7
86,48:2
86,49:7
86,50:7
86,51:2
86,52:2
86,53:2
86,54:6
86,55:7
86,56:7
86,57:7
86,58:4
86,59:4
86,60:4
86,61:2
86,62:4
86,63:7
86,64:4
86,65:4
86,66:4
86,67:2
86,68:1
86,69:1
86,70:1
86,71:1
86,72:1
86,73:1
86,74:8
86,75:8
86,76:8
86,77:8
86,78:8
86,79:7
86,80:1
86,81:7
86,82:7
86,84:7
86,85:7
87,1:3
87,2:3
87,3:3
87,4:3
87,6:3
87,8:3
87,11:3
87,14:5
87,15:5
87,16:5
87,17:5
87,18:2
87,19:2
87,20:2
87,21:2
87,22:2
87,23:2
87,24:2
87,25:2
87,26:5
87,27:2
87,28:5
87,29:3
87,30:5
87,31:3
87,32:3
87,33:6
87,34:1
87,35:1
87,36:1
87,37:5
87,38:5
87,39:5
87,40:4
87,41:4
87,42:4
87,43:5
87,44:4
87,45:7
87,46:7
87,47:7
87,48:2
87,49:7
87,50:7
87,51:2
87,52:2
87,53:2
87,54:6
87,55:7
87,56:7
87,57:7
87,58:4
87,59:4
87,60:4
87,61:2
87,62:4
87,63:7
87,64:4
87,65:4
87,66:4
87,67:2
87,68:1
87,69:1
87,70:1
87,71:1
87,72:1
87,73:1
87,74:8
87,75:8
87,76:8
87,77:8
87,78:8
87,79:7
87,80:1
87,81:7
87,82:7
87,84:7
87,85:7
88,1:3
88,2:3
88,3:3
88,4:3
88,6:3
88,8:3
88,11:3
88,14:5
88,15:5
88,16:5
88,17:5
88,18:2
88,19:2
88,20:2
88,21:2
88,22:2
88,23:2
88,24:2
88,25:2
88,26:5
88,27:2
88,28:5
88,29:3
88,30:5
88,31:3
88,32:3
88,33:6
88,34:1
88,35:1
88,36:1
88,37:5
88,38:5
88,39:5
88,40:4
88,41:4
88,42:4
88,43:5
88,44:4
88,45:7
88,46:7
88,47:7
88,48:2
88,49:7
88,50:7
88,51:2
88,52:2
88,53:2
88,54:6
88,55:7
88,56:7
88,57:7
88,58:4
88,59:4
88,60:4
88,61:2
88,62:4
88,63:7
88,64:4
88,65:4
88,66:4
88,67:2
88,68:1
88,69:1
88,70:1
88,71:1
88,72:1
88,73:1
88,74:8
88,75:8
88,76:8
88,77:8
88,78:8
88,79:7
88,80:1
88,81:7
88,82:7
88,84:7
88,85:7
89,1:3
89,2:3
89,3:3
89,4:3
89,6:3
89,8:3
89,11:3
89,14:5
89,15:5
89,16:5
89,17:5
89,18:2
89,19:2
89,20:2
89,21:2
89,22:2
89,23:2
89,24:2
89,25:2
89,26:5
89,27:2
89,28:5
89,29:3
89,30:5
89,31:3
89,32:3
89,33:6
89,34:1
89,35:1
89,36:1
89,37:5
89,38:5
89,39:5
89,40:4
89,41:4
89,42:4
89,43:5
89,44:4
89,45:7
89,46:7
89,47:7
89,48:2
89,49:7
89,50:7
89,51:2
89,52:2
89,53:2
89,54:6
89,55:7
89,56:7
89,57:7
89,58:4
89,59:4
89,60:4
89,61:2
89,62:4
89,63:7
89,64:4
89,65:4
89,66:4
89,67:2
89,68:1
89,69:1
89,70:1
89,71:1
89,72:1
89,73:1
89,74:8
89,75:8
89,76:8
89,77:8
89,78:8
89,79:7
89,80:1
89,81:7
89,82:7
89,84:7
89,85:7

<end>

<optimal SALBP-1 value>
17


<rand seed>
467321153

<Lower Bounds>
Lm1=16
Lms1=16
Lm2=3
Lm3=5
Lm4=17
Best=17

<Optimal Stations (Iterations: 10)>
19
